p edge 50 130
e 1 4
e 1 8
e 1 10
e 1 12
e 1 26
e 1 28
e 2 14
e 2 15
e 2 18
e 2 32
e 2 34
e 3 20
e 3 29
e 3 31
e 3 36
e 4 22
e 4 41
e 4 42
e 5 10
e 5 35
e 5 44
e 6 8
e 6 9
e 6 22
e 6 29
e 6 33
e 6 48
e 7 9
e 7 19
e 7 33
e 7 38
e 7 46
e 8 18
e 8 36
e 8 42
e 9 18
e 9 33
e 10 27
e 10 34
e 11 17
e 11 34
e 11 41
e 11 50
e 12 33
e 12 38
e 12 39
e 13 19
e 13 24
e 13 25
e 13 27
e 13 46
e 14 15
e 14 45
e 14 46
e 15 25
e 15 40
e 15 48
e 16 22
e 16 23
e 16 34
e 16 39
e 16 41
e 16 43
e 17 33
e 17 39
e 17 49
e 18 24
e 18 45
e 19 31
e 20 27
e 20 29
e 20 35
e 20 42
e 21 30
e 21 35
e 21 36
e 21 45
e 22 30
e 22 37
e 22 44
e 22 47
e 23 33
e 23 35
e 23 39
e 23 46
e 24 25
e 24 26
e 24 33
e 25 28
e 25 43
e 25 46
e 25 49
e 26 39
e 26 42
e 27 40
e 27 46
e 27 48
e 28 46
e 29 33
e 29 45
e 29 48
e 29 49
e 30 39
e 30 43
e 30 50
e 31 45
e 31 48
e 32 34
e 32 38
e 32 50
e 33 37
e 33 43
e 34 36
e 35 45
e 36 38
e 36 46
e 36 48
e 37 41
e 37 46
e 38 39
e 38 41
e 38 49
e 39 46
e 39 47
e 40 43
e 40 44
e 41 48
e 42 43
e 43 48
e 45 50
